StudentsNr = 10;
InstructorsNr = 8;
DaysNr = 1;
SlotsPerDay = 40;
AvailabilitySlotsLenght = 5;
RoomNr = 1;
ProgrammNr = 1;
DegreeNr = 2;
RolesNr = 0;
CoursesNr = 3;
InstructorsProgramm = [{1}, {1}, {1}, {1}, {1}, {1}, {1}, {1}];
InstructorRolesPerProgramm = array2d(1..ProgrammNr,{},[]);
InstructorsAvailability = [|0, 0, 0, 1, 1, 1, 1, 1, |1, 1, 1, 1, 1, 1, 1, 1, |1, 1, 1, 1, 0, 1, 1, 1, |0, 0, 1, 1, 1, 1, 0, 1, |1, 1, 1, 1, 0, 1, 1, 1, |1, 1, 1, 0, 1, 1, 1, 1, |0, 1, 1, 1, 1, 1, 0, 1, |1, 1, 0, 1, 1, 1, 1, 1|];
StudentsProgramm = [1, 1, 1, 1, 1, 1, 1, 1, 1, 1];
StudentsDegree = [1, 2, 2, 1, 1, 1, 2, 1, 2, 2];
StudentsSupervisorId = [8, 1, 8, 5, 4, 2, 5, 3, 6, 1];
StudentsCourseIds = [{2, 3}, {1, 2, 3}, {1, 2, 3}, {1, 2}, {2, 3}, {1, 2}, {1, 2, 3}, {1, 2}, {1, 2, 3}, {1, 2, 3}];
StudentsAvailability = [|1, 1, 1, 1, 1, 0, 0, 1, |0, 0, 0, 0, 1, 1, 1, 1, |0, 0, 1, 1, 1, 1, 1, 1, |1, 1, 1, 1, 1, 1, 1, 1, |1, 1, 1, 1, 1, 1, 1, 1, |1, 1, 1, 1, 1, 1, 1, 1, |0, 1, 1, 1, 1, 1, 1, 1, |1, 1, 1, 1, 1, 1, 1, 1, |0, 0, 1, 1, 1, 1, 0, 1, |1, 1, 1, 0, 0, 0, 1, 1|];
TheoryticalMinCard = [3, 3, 4, 2, 2, 2, 3, 2, 4, 3];
CoursesInstructorIds = [{1, 2, 5, 7}, {1, 3, 5}, {1, 2, 4, 7}];
RolesDemands = [];
RolesContinuity = [];
ExamLen = [2, 1, 1, 2, 2, 2, 1, 2, 1, 1];
LunchTsMinLen = 0;
LunchStarts = [18..23];
SupervisorAvailable = 5;
OptimalLunchLenght = [2, 1];
OptimalStartTs = [2, 0];
OptimalFinishTs = [2, 40];
MinimizeRooms = 200;
RolesSoftContinuity = array2d(1..2,{},[]);
SameDegreeInRoom = 20;
Mergeability = 1;
